946718
10 1 6947
1 21 6578
21 2 11546
2 27 15288
27 18 12606
18 13 28045
13 28 6411
28 31 12751
31 20 21913
20 22 39757
22 40 29078
40 19 13572
19 4 26533
4 24 52566
24 5 63665
5 32 3290
32 12 37145
12 33 3967
33 26 15458
26 37 14546
37 30 941
30 39 6375
39 25 4093
25 34 30137
34 23 31609
23 38 7449
38 29 745
29 7 22890
7 36 11794
36 6 22446
6 9 47658
9 17 102410
17 14 42391
14 3 30026
3 16 71701
16 15 36816
15 8 26227
8 11 17581
11 35 5412
35 10 6355
